Translating instance to solver...

Set parameter TimeLimit to value 28800
Gurobi Optimizer version 11.0.2 build v11.0.2rc0 (linux64 - "Ubuntu 22.04.4 LTS")

CPU model: Intel(R) Xeon(R) Gold 5120 CPU @ 2.20GHz, instruction set [SSE2|AVX|AVX2|AVX512]
Thread count: 28 physical cores, 56 logical processors, using up to 28 threads

Academic license 2463511 - for non-commercial use only - registered to lu___@cefet-rj.br
Optimize a model with 145385 rows, 68063 columns and 326945 nonzeros
Model fingerprint: 0x8762b51b
Variable types: 1 continuous, 68062 integer (67980 binary)
Coefficient statistics:
  Matrix range     [1e+00, 1e+05]
  Objective range  [3e-01, 8e-01]
  Bounds range     [1e+00, 8e+01]
  RHS range        [1e+00, 1e+02]
Presolve removed 123733 rows and 58873 columns
Presolve time: 3.08s
Presolved: 21652 rows, 9190 columns, 60874 nonzeros
Variable types: 0 continuous, 9190 integer (9109 binary)
Found heuristic solution: objective 60.4712800

Root relaxation: objective 2.573564e+00, 1435 iterations, 0.15 seconds (0.15 work units)

    Nodes    |    Current Node    |     Objective Bounds      |     Work
 Expl Unexpl |  Obj  Depth IntInf | Incumbent    BestBd   Gap | It/Node Time

     0     0    2.57356    0   15   60.47128    2.57356  95.7%     -    3s
H    0     0                       5.5971280    2.57356  54.0%     -    3s
H    0     0                       3.3294550    2.57356  22.7%     -    4s
     0     0    2.57356    0   25    3.32946    2.57356  22.7%     -    4s
     0     0    2.57356    0   48    3.32946    2.57356  22.7%     -    6s
     0     0    2.57356    0   23    3.32946    2.57356  22.7%     -    6s
     0     0    2.57759    0  182    3.32946    2.57759  22.6%     -    7s
     0     0    2.66092    0  577    3.32946    2.66092  20.1%     -    8s
     0     0    2.69181    0  740    3.32946    2.69181  19.2%     -    9s
     0     0    2.76092    0 1004    3.32946    2.76092  17.1%     -   11s
     0     0    2.76128    0  869    3.32946    2.76128  17.1%     -   11s
     0     2    2.76128    0  868    3.32946    2.76128  17.1%     -   13s
     3     8    2.76128    2  796    3.32946    2.76128  17.1%  2325   15s
H   82    76                       3.1853460    2.76128  13.3%   669   18s
   143   120    2.76128    9  442    3.18535    2.76128  13.3%   520   20s
   565   273    2.89267   15  367    3.18535    2.76128  13.3%   301   34s
   693   337    2.86644   17  303    3.18535    2.76128  13.3%   269   35s
  1724   542    2.93574    9  272    3.18535    2.76128  13.3%   245   40s
  2328   529    3.17885   22  172    3.18535    2.83082  11.1%   236   45s
  4188    14    3.06864    8  371    3.18535    2.94151  7.66%   205   50s

Cutting planes:
  Learned: 295
  Implied bound: 343
  MIR: 75
  Zero half: 10
  RLT: 116
  Relax-and-lift: 71
  BQP: 216

Explored 4282 nodes (902525 simplex iterations) in 50.85 seconds (47.68 work units)
Thread count was 28 (of 56 available processors)

Solution count 4: 3.18535 3.32946 5.59713 60.4713 

Optimal solution found (tolerance 1.00e-04)
Best objective 3.185346000000e+00, best bound 3.185346000000e+00, gap 0.0000%

Solver Wallclock Time (for this epsilon): 50.864652156829834 s
Python wallclock Time (for this epsilon): 63.32449674606323 s


Total Elapsed Time (since program call): 4072.9304082393646 s

Results:

I = 3.185346 mA
C = 100.0 points
C ~= 40.0 km^2

Minimum Epsilon for this instance = 10
Maximum Epsilon for this instance = 100

Current Epsilon = 100


Preprocessing Time (for this epsilon): 0.013067007064819336 s


Updated solution vectors:
sol_I = [-1.223564,-1.223564,-1.6735639999999998,-1.6735635949810057,-1.6735639999999998,-1.6735639999999998,-2.123564,-2.123564,-2.5735639999999997,-3.185346]
sol_C = [10.0,20.0,52.0,56.9999839800992,51.0,60.0,71.0,83.0,91.0,100.0]
sol_eps = [10,20,30,40,50,60,70,80,90,100]
sol_gap = [0.0,0.0,0.0,0.0,0.0,1.7999999935014444e-07,0.0,3.4920712410624333e-07,0.0,0.0]
